







































































































4 36 62 23 0 2 51 
35 54 18 38 1 17 15 
25 57 14 56 65 21 
31 10 12 5 9 22 42 
7 75 19 59 67 74 64 
43 40 69 41 8 13 71 
49 63 34 27 30 60 6 
50 16 24 11 48 33 20 
55 58 32 45 37 52 26 
44 29 61 3 72 66 73 
39 68 47 76 70 28 53 46 
